c Result of efficient AIG-to-CNF conversion using package CNF
p cnf 321 1010
-2 -3 275 0
-2 216 268 275 0
2 -275 0
2 3 -216 0
2 3 -268 0
3 -4 -214 0
-3 4 0
-3 214 0
4 -5 -213 0
-4 5 0
-4 213 0
5 -6 -208 0
-5 6 0
-5 208 0
6 -7 -200 0
-6 7 0
-6 200 0
7 -8 -193 0
-7 8 0
-7 193 0
8 -9 -182 0
-8 9 0
-8 182 0
9 -10 -170 0
-9 10 0
-9 170 0
10 -11 -155 0
-10 11 0
-10 155 0
11 -12 -140 0
-11 12 0
-11 140 0
12 -13 -121 0
-12 13 0
-12 121 0
13 -14 -101 0
-13 14 0
-13 101 0
14 -15 -79 0
-14 15 0
-14 79 0
15 -16 -55 0
-15 16 0
-15 55 0
16 -17 -30 0
-16 17 0
-16 30 0
17 -305 -306 0
17 -305 -18 0
-17 305 0
-17 306 18 0
-18 307 19 0
18 -307 0
18 -19 0
-19 308 20 0
19 -308 0
19 -20 0
-20 309 21 0
20 -309 0
20 -21 0
-21 310 22 0
21 -310 0
21 -22 0
-22 311 23 0
22 -311 0
22 -23 0
-23 312 24 0
23 -312 0
23 -24 0
-24 313 25 0
24 -313 0
24 -25 0
-25 314 26 0
25 -314 0
25 -26 0
-26 315 27 0
26 -315 0
26 -27 0
-27 316 28 0
27 -316 0
27 -28 0
-28 317 29 0
28 -317 0
28 -29 0
-29 318 319 320 0
29 -318 0
29 -320 0
29 -319 0
-30 31 32 0
30 -31 0
30 -32 0
31 -306 -18 0
-31 306 0
-31 18 0
-32 33 34 0
32 -33 0
32 -34 0
33 -307 -19 0
-33 307 0
-33 19 0
-34 35 54 0
34 -35 0
34 -54 0
-35 36 37 0
35 -36 0
35 -37 0
36 -309 -21 0
-36 309 0
-36 21 0
-37 38 53 0
37 -38 0
37 -53 0
-38 39 40 0
38 -39 0
38 -40 0
39 -311 -23 0
-39 311 0
-39 23 0
-40 41 52 0
40 -41 0
40 -52 0
-41 42 43 0
41 -42 0
41 -43 0
42 -313 -25 0
-42 313 0
-42 25 0
-43 44 51 0
43 -44 0
43 -51 0
-44 45 46 0
44 -45 0
44 -46 0
45 -315 -27 0
-45 315 0
-45 27 0
-46 47 50 0
46 -47 0
46 -50 0
-47 48 49 0
47 -48 0
47 -49 0
48 -317 -29 0
-48 317 0
-48 29 0
-49 318 320 0
-49 319 320 0
-49 318 319 0
49 -318 -319 0
49 -319 -320 0
49 -318 -320 0
50 -316 -28 0
-50 316 0
-50 28 0
51 -314 -26 0
-51 314 0
-51 26 0
52 -312 -24 0
-52 312 0
-52 24 0
53 -310 -22 0
-53 310 0
-53 22 0
54 -308 -20 0
-54 308 0
-54 20 0
-55 56 57 0
55 -56 0
55 -57 0
56 -31 -32 0
-56 31 0
-56 32 0
-57 58 59 0
57 -58 0
57 -59 0
58 -33 -34 0
-58 33 0
-58 34 0
-59 60 61 0
59 -60 0
59 -61 0
60 -35 -54 0
-60 35 0
-60 54 0
-61 62 63 0
61 -62 0
61 -63 0
62 -36 -37 0
-62 36 0
-62 37 0
-63 64 65 0
63 -64 0
63 -65 0
64 -38 -53 0
-64 38 0
-64 53 0
-65 66 67 0
65 -66 0
65 -67 0
66 -39 -40 0
-66 39 0
-66 40 0
-67 68 69 0
67 -68 0
67 -69 0
68 -41 -52 0
-68 41 0
-68 52 0
-69 70 71 0
69 -70 0
69 -71 0
70 -42 -43 0
-70 42 0
-70 43 0
-71 72 73 0
71 -72 0
71 -73 0
72 -44 -51 0
-72 44 0
-72 51 0
-73 74 75 0
73 -74 0
73 -75 0
74 -45 -46 0
-74 45 0
-74 46 0
-75 76 77 0
75 -76 0
75 -77 0
76 -47 -50 0
-76 47 0
-76 50 0
-77 49 78 0
-77 48 78 0
77 -78 0
77 -48 -49 0
78 -318 -319 -320 0
-78 318 0
-78 319 0
-78 320 0
-79 80 81 0
79 -80 0
79 -81 0
80 -56 -57 0
-80 56 0
-80 57 0
-81 82 83 0
81 -82 0
81 -83 0
82 -58 -59 0
-82 58 0
-82 59 0
-83 84 85 0
83 -84 0
83 -85 0
84 -60 -61 0
-84 60 0
-84 61 0
-85 86 87 0
85 -86 0
85 -87 0
86 -62 -63 0
-86 62 0
-86 63 0
-87 88 89 0
87 -88 0
87 -89 0
88 -64 -65 0
-88 64 0
-88 65 0
-89 90 91 0
89 -90 0
89 -91 0
90 -66 -67 0
-90 66 0
-90 67 0
-91 92 93 0
91 -92 0
91 -93 0
92 -68 -69 0
-92 68 0
-92 69 0
-93 94 95 0
93 -94 0
93 -95 0
94 -70 -71 0
-94 70 0
-94 71 0
-95 96 97 0
95 -96 0
95 -97 0
96 -72 -73 0
-96 72 0
-96 73 0
-97 98 99 0
97 -98 0
97 -99 0
98 -74 -75 0
-98 74 0
-98 75 0
-99 77 100 0
-99 76 100 0
99 -100 0
99 -76 -77 0
100 -317 -78 0
-100 317 0
-100 78 0
-101 102 103 0
101 -102 0
101 -103 0
102 -80 -81 0
-102 80 0
-102 81 0
-103 104 105 0
103 -104 0
103 -105 0
104 -82 -83 0
-104 82 0
-104 83 0
-105 106 120 0
105 -106 0
105 -120 0
-106 107 108 0
106 -107 0
106 -108 0
107 -86 -87 0
-107 86 0
-107 87 0
-108 109 119 0
108 -109 0
108 -119 0
-109 110 111 0
109 -110 0
109 -111 0
110 -90 -91 0
-110 90 0
-110 91 0
-111 112 113 0
111 -112 0
111 -113 0
112 -92 -93 0
-112 92 0
-112 93 0
-113 114 115 0
113 -114 0
113 -115 0
114 -94 -95 0
-114 94 0
-114 95 0
-115 116 117 0
115 -116 0
115 -117 0
116 -96 -97 0
-116 96 0
-116 97 0
-117 99 118 0
-117 98 118 0
117 -118 0
117 -98 -99 0
118 -317 -76 -78 0
-118 317 0
-118 76 0
-118 78 0
119 -88 -89 0
-119 88 0
-119 89 0
120 -84 -85 0
-120 84 0
-120 85 0
-121 122 123 0
121 -122 0
121 -123 0
122 -102 -103 0
-122 102 0
-122 103 0
-123 124 125 0
123 -124 0
123 -125 0
124 -104 -105 0
-124 104 0
-124 105 0
-125 126 127 0
125 -126 0
125 -127 0
126 -106 -120 0
-126 106 0
-126 120 0
-127 128 129 0
127 -128 0
127 -129 0
128 -107 -108 0
-128 107 0
-128 108 0
-129 130 131 0
129 -130 0
129 -131 0
130 -109 -119 0
-130 109 0
-130 119 0
-131 132 133 0
131 -132 0
131 -133 0
132 -110 -111 0
-132 110 0
-132 111 0
-133 134 135 0
133 -134 0
133 -135 0
134 -112 -113 0
-134 112 0
-134 113 0
-135 136 137 0
135 -136 0
135 -137 0
136 -114 -115 0
-136 114 0
-136 115 0
-137 138 139 0
137 -138 0
137 -139 0
138 -116 -117 0
-138 116 0
-138 117 0
139 -98 -118 0
-139 98 0
-139 118 0
-140 141 142 0
140 -141 0
140 -142 0
141 -122 -123 0
-141 122 0
-141 123 0
-142 143 144 0
142 -143 0
142 -144 0
143 -124 -125 0
-143 124 0
-143 125 0
-144 145 146 0
144 -145 0
144 -146 0
145 -126 -127 0
-145 126 0
-145 127 0
-146 147 148 0
146 -147 0
146 -148 0
147 -128 -129 0
-147 128 0
-147 129 0
-148 149 150 0
148 -149 0
148 -150 0
149 -130 -131 0
-149 130 0
-149 131 0
-150 151 152 0
150 -151 0
150 -152 0
151 -132 -133 0
-151 132 0
-151 133 0
-152 153 154 0
152 -153 0
152 -154 0
153 -134 -135 0
-153 134 0
-153 135 0
-154 136 139 0
-154 138 139 0
-154 136 138 0
154 -136 -138 0
154 -138 -139 0
154 -136 -139 0
-155 156 157 0
155 -156 0
155 -157 0
156 -141 -142 0
-156 141 0
-156 142 0
-157 158 159 0
157 -158 0
157 -159 0
158 -143 -144 0
-158 143 0
-158 144 0
-159 160 161 0
159 -160 0
159 -161 0
160 -145 -146 0
-160 145 0
-160 146 0
-161 162 163 0
161 -162 0
161 -163 0
162 -147 -148 0
-162 147 0
-162 148 0
-163 164 165 0
163 -164 0
163 -165 0
164 -149 -150 0
-164 149 0
-164 150 0
-165 166 167 0
165 -166 0
165 -167 0
166 -151 -152 0
-166 151 0
-166 152 0
-167 154 168 0
-167 153 168 0
167 -168 0
167 -153 -154 0
168 -136 -169 0
-168 136 0
-168 169 0
169 -138 -139 0
-169 138 0
-169 139 0
-170 171 172 0
170 -171 0
170 -172 0
171 -156 -157 0
-171 156 0
-171 157 0
-172 173 174 0
172 -173 0
172 -174 0
173 -158 -159 0
-173 158 0
-173 159 0
-174 175 176 0
174 -175 0
174 -176 0
175 -160 -161 0
-175 160 0
-175 161 0
-176 177 178 0
176 -177 0
176 -178 0
177 -162 -163 0
-177 162 0
-177 163 0
-178 179 180 0
178 -179 0
178 -180 0
179 -164 -165 0
-179 164 0
-179 165 0
-180 167 181 0
-180 166 181 0
180 -181 0
180 -166 -167 0
181 -134 -168 0
-181 134 0
-181 168 0
-182 183 184 0
182 -183 0
182 -184 0
183 -171 -172 0
-183 171 0
-183 172 0
-184 185 186 0
184 -185 0
184 -186 0
185 -173 -174 0
-185 173 0
-185 174 0
-186 187 188 0
186 -187 0
186 -188 0
187 -175 -176 0
-187 175 0
-187 176 0
-188 189 190 0
188 -189 0
188 -190 0
189 -177 -178 0
-189 177 0
-189 178 0
-190 191 192 0
190 -191 0
190 -192 0
191 -179 -180 0
-191 179 0
-191 180 0
192 -166 -181 0
-192 166 0
-192 181 0
-193 194 195 0
193 -194 0
193 -195 0
194 -183 -184 0
-194 183 0
-194 184 0
-195 196 197 0
195 -196 0
195 -197 0
196 -185 -186 0
-196 185 0
-196 186 0
-197 198 199 0
197 -198 0
197 -199 0
198 -187 -188 0
-198 187 0
-198 188 0
-199 189 192 0
-199 191 192 0
-199 189 191 0
199 -189 -191 0
199 -191 -192 0
199 -189 -192 0
-200 201 202 0
200 -201 0
200 -202 0
201 -194 -195 0
-201 194 0
-201 195 0
-202 203 204 0
202 -203 0
202 -204 0
203 -196 -197 0
-203 196 0
-203 197 0
-204 205 206 0
204 -205 0
204 -206 0
205 -198 -199 0
-205 198 0
-205 199 0
206 -189 -207 0
-206 189 0
-206 207 0
207 -191 -192 0
-207 191 0
-207 192 0
-208 209 210 0
208 -209 0
208 -210 0
209 -201 -202 0
-209 201 0
-209 202 0
-210 211 212 0
210 -211 0
210 -212 0
211 -203 -204 0
-211 203 0
-211 204 0
212 -187 -206 0
-212 187 0
-212 206 0
-213 209 212 0
-213 211 212 0
-213 209 211 0
213 -209 -211 0
213 -211 -212 0
213 -209 -212 0
214 -209 -215 0
-214 209 0
-214 215 0
215 -211 -212 0
-215 211 0
-215 212 0
216 -217 -266 0
-216 217 0
-216 266 0
217 -218 -262 0
-217 218 0
-217 262 0
218 219 -258 0
218 -219 258 0
-218 -219 -258 0
-218 219 258 0
219 220 -254 0
219 -220 254 0
-219 -220 -254 0
-219 220 254 0
220 221 -250 0
220 -221 250 0
-220 -221 -250 0
-220 221 250 0
221 222 -246 0
221 -222 246 0
-221 -222 -246 0
-221 222 246 0
222 223 -242 0
222 -223 242 0
-222 -223 -242 0
-222 223 242 0
223 224 -241 0
223 -224 241 0
-223 -224 -241 0
-223 224 241 0
224 -225 -239 0
-224 225 0
-224 239 0
225 226 -237 0
225 -226 237 0
-225 -226 -237 0
-225 226 237 0
226 227 -235 0
226 -227 235 0
-226 -227 -235 0
-226 227 235 0
227 228 -233 0
227 -228 233 0
-227 -228 -233 0
-227 228 233 0
228 229 -230 0
228 -229 230 0
-228 -229 -230 0
-228 229 230 0
-229 -317 29 0
-229 317 49 0
-229 -317 -78 0
229 317 -49 0
229 -317 -29 78 0
230 -316 -231 0
-230 316 0
-230 231 0
-231 317 232 0
-231 -317 -232 0
231 -317 232 0
231 317 -232 0
-232 29 78 0
-232 -49 78 0
232 -78 0
232 -29 49 0
233 -315 -234 0
-233 315 0
-233 234 0
234 -316 231 0
234 316 -231 0
-234 316 231 0
-234 -316 -231 0
235 -314 -236 0
-235 314 0
-235 236 0
236 315 -234 0
236 -315 234 0
-236 -315 -234 0
-236 315 234 0
237 -313 -238 0
-237 313 0
-237 238 0
238 314 -236 0
238 -314 236 0
-238 -314 -236 0
-238 314 236 0
239 -312 -240 0
-239 312 0
-239 240 0
240 313 -238 0
240 -313 238 0
-240 -313 -238 0
-240 313 238 0
241 -93 168 0
-241 93 0
-241 -168 0
242 -243 -244 0
-242 243 0
-242 244 0
243 225 -239 0
243 -225 239 0
-243 -225 -239 0
-243 225 239 0
244 -311 -245 0
-244 311 0
-244 245 0
245 312 -240 0
245 -312 240 0
-245 -312 -240 0
-245 312 240 0
246 -247 -248 0
-246 247 0
-246 248 0
247 243 -244 0
247 -243 244 0
-247 -243 -244 0
-247 243 244 0
248 -310 -249 0
-248 310 0
-248 249 0
249 311 -245 0
249 -311 245 0
-249 -311 -245 0
-249 311 245 0
250 -251 -252 0
-250 251 0
-250 252 0
251 247 -248 0
251 -247 248 0
-251 -247 -248 0
-251 247 248 0
252 -309 -253 0
-252 309 0
-252 253 0
253 310 -249 0
253 -310 249 0
-253 -310 -249 0
-253 310 249 0
254 -255 -256 0
-254 255 0
-254 256 0
255 251 -252 0
255 -251 252 0
-255 -251 -252 0
-255 251 252 0
256 -308 -257 0
-256 308 0
-256 257 0
257 309 -253 0
257 -309 253 0
-257 -309 -253 0
-257 309 253 0
258 -259 -260 0
-258 259 0
-258 260 0
259 255 -256 0
259 -255 256 0
-259 -255 -256 0
-259 255 256 0
260 -307 -261 0
-260 307 0
-260 261 0
261 308 -257 0
261 -308 257 0
-261 -308 -257 0
-261 308 257 0
262 -263 -264 0
-262 263 0
-262 264 0
263 259 -260 0
263 -259 260 0
-263 -259 -260 0
-263 259 260 0
264 -306 -265 0
-264 306 0
-264 265 0
265 307 -261 0
265 -307 261 0
-265 -307 -261 0
-265 307 261 0
-266 159 267 0
266 -159 0
266 -267 0
267 -219 -258 0
-267 219 0
-267 258 0
268 -269 -274 0
-268 269 0
-268 274 0
269 -270 -271 0
-269 270 0
-269 271 0
270 218 -262 0
270 -218 262 0
-270 -218 -262 0
-270 218 262 0
271 -263 -272 0
-271 263 0
-271 272 0
272 -305 -273 0
-272 305 0
-272 273 0
273 306 -265 0
273 -306 265 0
-273 -306 -265 0
-273 306 265 0
274 -217 266 0
274 217 -266 0
-274 217 266 0
-274 -217 -266 0
-275 276 280 281 302 0
-275 -276 -280 281 302 0
275 -302 0
275 -276 280 0
275 -281 0
275 276 -280 0
276 -279 3 0
276 -277 278 3 0
-276 -3 0
-276 277 279 0
-276 -278 279 0
-277 15 79 0
277 -15 0
277 -79 0
-278 11 155 0
278 -11 0
278 -155 0
-279 7 200 0
279 -7 0
279 -200 0
280 270 -271 0
280 -270 271 0
-280 -270 -271 0
-280 270 271 0
-281 -282 -284 -291 -292 0
-281 282 284 -291 -292 0
-281 -282 -284 291 292 0
-281 282 284 291 292 0
281 291 -292 0
281 -291 292 0
281 282 -284 0
281 -282 284 0
-282 -272 -283 0
-282 272 283 0
282 272 -283 0
282 -272 283 0
283 263 -264 0
283 -263 264 0
-283 -263 -264 0
-283 263 264 0
284 3 -290 0
284 279 3 -285 0
-284 -3 0
-284 -279 290 0
-284 285 290 0
-285 -278 289 0
-285 286 288 289 0
285 -289 0
285 278 -288 0
285 278 -286 0
286 277 -287 0
-286 -277 0
-286 287 0
-287 17 30 0
287 -17 0
287 -30 0
-288 13 121 0
288 -13 0
288 -121 0
-289 9 182 0
289 -9 0
289 -182 0
-290 5 213 0
290 -5 0
290 -213 0
291 305 -273 0
291 -305 273 0
-291 -305 -273 0
-291 305 273 0
292 4 -214 0
292 -4 214 0
292 214 290 -293 0
-292 -4 -214 0
-292 4 214 -290 0
-292 4 214 293 0
-293 6 208 294 0
-293 -279 6 208 0
293 -208 0
293 -6 0
293 279 -294 0
-294 9 193 295 0
-294 -9 182 193 0
-294 9 -182 193 0
294 -193 0
294 -9 -182 0
294 9 182 -295 0
-295 10 170 296 0
-295 -278 10 170 0
295 -170 0
295 -10 0
295 278 -296 0
-296 13 140 297 0
-296 -13 121 140 0
-296 13 -121 140 0
296 -140 0
296 -13 -121 0
296 13 121 -297 0
-297 14 101 298 0
-297 -277 14 101 0
297 -101 0
297 -14 0
297 277 -298 0
-298 17 55 299 0
-298 -17 30 55 0
-298 17 -30 55 0
298 -55 0
298 -17 -30 0
298 17 30 -299 0
-299 305 312 300 301 0
299 -305 0
299 -301 0
299 -300 0
299 -312 0
-300 309 310 311 24 0
300 -24 0
300 -311 0
300 -309 0
300 -310 0
-301 306 307 308 0
301 -306 0
301 -308 0
301 -307 0
-302 -303 -304 0
-302 303 304 0
302 303 -304 0
302 -303 304 0
303 269 -274 0
303 -269 274 0
-303 -269 -274 0
-303 269 274 0
304 -278 3 0
-304 278 0
-304 -3 0
-321 0
2 0

